
Log started (V12.10.0.0) Mon Apr  5 18:16:23 2021


Problem 'asset.lp' read.
Read time = 0.01 sec. (0.80 ticks)
New value for default parallel thread count: 1
New value for time limit in seconds: 150
Version identifier: 12.10.0.0 | 2019-11-26 | 843d4de
CPXPARAM_Threads                                 1
CPXPARAM_TimeLimit                               150
Found incumbent of value 0.000000 after 0.00 sec. (0.21 ticks)
Tried aggregator 3 times.
MIP Presolve eliminated 1866 rows and 819 columns.
MIP Presolve modified 6932 coefficients.
Aggregator did 2475 substitutions.
Reduced MIP has 2773 rows, 3247 columns, and 15598 nonzeros.
Reduced MIP has 2930 binaries, 241 generals, 0 SOSs, and 0 indicators.
Presolve time = 0.04 sec. (35.10 ticks)
Probing fixed 82 vars, tightened 2 bounds.
Probing time = 0.04 sec. (26.67 ticks)
Cover probing fixed 0 vars, tightened 42 bounds.
Tried aggregator 1 time.
Detecting symmetries...
MIP Presolve eliminated 92 rows and 86 columns.
MIP Presolve modified 432 coefficients.
Reduced MIP has 2681 rows, 3161 columns, and 15066 nonzeros.
Reduced MIP has 2846 binaries, 239 generals, 0 SOSs, and 0 indicators.
Presolve time = 0.01 sec. (9.21 ticks)
Probing time = 0.00 sec. (3.52 ticks)
Clique table members: 9338.
MIP emphasis: balance optimality and feasibility.
MIP search method: dynamic search.
Parallel mode: none, using 1 thread.
Root relaxation solution time = 0.12 sec. (174.20 ticks)

        Nodes                                         Cuts/
   Node  Left     Objective  IInf  Best Integer    Best Bound    ItCnt     Gap

*     0+    0                            0.0000      384.0000              --- 
      0     0      351.6260   409        0.0000      351.6260     1830     --- 
      0     0      345.0468   409        0.0000     Cuts: 770     6067     --- 
      0     0      341.3530   409        0.0000     Cuts: 770     8492     --- 
      0     0      341.0494   409        0.0000     Cuts: 770     9892     --- 
      0     0      340.5886   409        0.0000     Cuts: 770    12009     --- 
      0     0      339.8936   409        0.0000     Cuts: 770    14308     --- 
Detecting symmetries...
      0     0      339.4825   409        0.0000     Cuts: 770    16417     --- 
      0     0      339.1894   409        0.0000     Cuts: 770    17252     --- 
      0     0      338.1558   409        0.0000     Cuts: 477    19556     --- 
      0     0      338.1320   409        0.0000     Cuts: 770    21320     --- 
      0     0      338.0652   409        0.0000     Cuts: 290    22347     --- 
      0     0      337.9215   409        0.0000     Cuts: 770    23432     --- 
      0     0      337.8953   409        0.0000     Cuts: 770    24318     --- 
*     0+    0                           16.0000      337.8953              --- 
*     0+    0                           92.0000      337.8953           267.28%
*     0+    0                           98.0000      337.8953           244.79%
*     0+    0                          106.0000      337.8953           218.77%
*     0+    0                          108.0000      337.8953           212.87%
*     0+    0                          112.0000      337.8953           201.69%
*     0+    0                          114.0000      337.8953           196.40%
*     0+    0                          116.0000      337.8953           191.29%
*     0+    0                          118.0000      337.8953           186.35%
      0     0        cutoff            118.0000      337.8953    24318  186.35%
Detecting symmetries...
      0     2      337.8953   439      118.0000      337.8953    24318  186.35%
Elapsed time = 5.55 sec. (7428.97 ticks, tree = 0.01 MB, solutions = 9)
      3     5      337.0591   441      118.0000      337.8818    27472  186.34%
      7     9      337.1479   433      118.0000      337.7411    30293  186.22%
      9    11      323.1162   406      118.0000      337.7411    34377  186.22%
     10    12      332.9114   413      118.0000      337.7411    35330  186.22%
     13    15      330.0978   395      118.0000      337.7411    37294  186.22%
     20    22      330.7398   380      118.0000      337.7411    39151  186.22%
     22    24      330.5611   452      118.0000      337.7411    41219  186.22%
     25    27      316.6274   360      118.0000      337.7411    44741  186.22%
     28    30      297.7033   342      118.0000      337.7411    47045  186.22%
     44    42      269.9590   272      118.0000      337.7411    52844  186.22%
Elapsed time = 8.38 sec. (11487.30 ticks, tree = 0.46 MB, solutions = 9)
     80    65      322.2370   401      118.0000      337.1479    62491  185.72%
     92    77      289.6192   326      118.0000      337.1479    72084  185.72%
    126   105      268.4333   285      118.0000      337.1479    82111  185.72%
    166   145      211.0310   138      118.0000      337.1479    92589  185.72%
    327   261      336.9032   429      118.0000      337.1479   104030  185.72%
    332   266      308.3919   401      118.0000      337.1479   114467  185.72%
    345   279      301.1172   354      118.0000      337.1479   124206  185.72%
    356   290      292.0869   384      118.0000      337.1479   133692  185.72%
    365   299      287.3783   351      118.0000      337.1479   141472  185.72%
    376   310      283.1002   338      118.0000      337.1479   150799  185.72%
Elapsed time = 16.32 sec. (21885.53 ticks, tree = 0.96 MB, solutions = 9)
    391   325      279.8239   324      118.0000      337.1479   158897  185.72%
    403   337      322.0178   436      118.0000      337.0591   167798  185.64%
    419   353      310.6313   373      118.0000      337.0591   176786  185.64%
    424   358      303.6622   400      118.0000      337.0591   186464  185.64%
    432   366      298.9305   389      118.0000      337.0591   195182  185.64%
    446   380      293.2161   376      118.0000      337.0591   204090  185.64%
    458   392      286.5295   377      118.0000      337.0591   213569  185.64%
    470   404      282.5825   356      118.0000      337.0591   223043  185.64%

Performing restart 1

Repeating presolve.
Tried aggregator 2 times.
MIP Presolve eliminated 2 rows and 0 columns.
MIP Presolve modified 3814 coefficients.
Aggregator did 3 substitutions.
Reduced MIP has 2676 rows, 3158 columns, and 12565 nonzeros.
Reduced MIP has 2843 binaries, 239 generals, 0 SOSs, and 0 indicators.
Presolve time = 0.01 sec. (13.74 ticks)
Tried aggregator 1 time.
Reduced MIP has 2676 rows, 3158 columns, and 12565 nonzeros.
Reduced MIP has 2843 binaries, 239 generals, 0 SOSs, and 0 indicators.
Presolve time = 0.01 sec. (8.70 ticks)
Represolve time = 0.10 sec. (72.76 ticks)
    476     0      318.8879   519      118.0000     Cuts: 713   241581  170.24%
    476     0      311.9583   519      118.0000     Cuts: 519   243715  164.37%
    476     0      307.7698   519      118.0000     Cuts: 419   245116  160.82%
    476     0      304.7484   519      118.0000     Cuts: 453   246417  158.26%
    476     0      301.7628   519      118.0000     Cuts: 403   247787  155.73%
    476     0      299.7520   519      118.0000     Cuts: 374   248804  154.03%
    476     0      298.1507   519      118.0000     Cuts: 299   249552  152.67%
    476     0      297.1219   519      118.0000     Cuts: 281   250298  151.80%
    476     0      296.1981   519      118.0000     Cuts: 352   251010  151.02%
    476     0      295.1980   519      118.0000     Cuts: 229   251781  150.17%
    476     0      294.5890   519      118.0000     Cuts: 201   252545  149.65%
    476     0      293.7818   519      118.0000     Cuts: 167   253041  148.97%
    476     0      293.1615   519      118.0000     Cuts: 219   253699  148.44%
    476     0      292.6546   519      118.0000     Cuts: 174   254322  148.01%
    476     0      292.3150   519      118.0000     Cuts: 163   254910  147.72%
    476     0      292.0449   519      118.0000      Cuts: 92   255383  147.50%
    476     0      291.7953   519      118.0000     Cuts: 156   255816  147.28%
    476     0      291.6274   519      118.0000     Cuts: 121   256386  147.14%
    476     0      291.3418   519      118.0000     Cuts: 130   257017  146.90%
    476     0      291.1548   519      118.0000     Cuts: 169   257432  146.74%
    476     0      290.8565   519      118.0000     Cuts: 157   258095  146.49%
    476     0      290.5907   519      118.0000     Cuts: 137   258828  146.26%
    476     0      290.3049   519      118.0000     Cuts: 182   259441  146.02%
    476     0      289.9526   519      118.0000     Cuts: 164   260136  145.72%
    476     0      289.2869   519      118.0000     Cuts: 188   260908  145.16%
    476     0      289.0360   519      118.0000     Cuts: 180   261303  144.95%
    476     0      288.7611   519      118.0000     Cuts: 119   261776  144.71%
    476     0      288.3932   519      118.0000     Cuts: 225   262464  144.40%
    476     0      288.3245   519      118.0000     Cuts: 183   262833  144.34%
    476     0      288.0236   519      118.0000     Cuts: 138   263886  144.09%
    476     0      287.8389   519      118.0000     Cuts: 142   264362  143.93%
    476     0      287.4982   519      118.0000     Cuts: 216   265057  143.64%
    476     0      287.3876   519      118.0000     Cuts: 186   265460  143.55%
    476     0      287.2547   519      118.0000     Cuts: 128   265984  143.44%
    476     0      287.1677   519      118.0000     Cuts: 114   266368  143.36%
    476     0      286.9696   519      118.0000     Cuts: 149   266983  143.19%
    476     0      286.8099   519      118.0000     Cuts: 130   267593  143.06%
    476     0      286.6792   519      118.0000     Cuts: 169   268139  142.95%
    476     0      286.6474   519      118.0000     Cuts: 112   268435  142.92%
    476     0      286.5611   519      118.0000     Cuts: 116   268806  142.85%
    476     0      286.4651   519      118.0000     Cuts: 134   269115  142.77%
    476     0      286.2519   519      118.0000     Cuts: 143   269932  142.59%
    476     0      286.1869   519      118.0000     Cuts: 161   270356  142.53%
    476     0      286.1146   519      118.0000     Cuts: 122   270720  142.47%
    476     0      285.9818   519      118.0000     Cuts: 138   271234  142.36%
    476     0      285.9009   519      118.0000     Cuts: 125   271704  142.29%
    476     2      285.9009   545      118.0000      285.9007   271704  142.29%
    478     4      278.4404   453      118.0000      285.8311   274190  142.23%
Elapsed time = 58.05 sec. (75533.40 ticks, tree = 0.01 MB, solutions = 9)
    480     6      285.6447   518      118.0000      285.7186   275058  142.13%
    482     8      285.5943   518      118.0000      285.6567   278265  142.08%
    485    11      285.4889   492      118.0000      285.6567   279338  142.08%
    486    12      285.4722   495      118.0000      285.6567   279677  142.08%
    488    14      285.4065   478      118.0000      285.6567   282859  142.08%
    491    17      285.4000   472      118.0000      285.6567   286227  142.08%
    496    22      276.4200   436      118.0000      285.6567   289151  142.08%
    502    28      284.4556   441      118.0000      285.6567   291907  142.08%
    506    32      281.6329   445      118.0000      285.6567   293844  142.08%
    511    37      283.8308   421      118.0000      285.6567   296312  142.08%
Elapsed time = 65.72 sec. (87186.76 ticks, tree = 0.28 MB, solutions = 9)
    516    41      275.0084   403      118.0000      285.6567   298775  142.08%
    522    45      268.8875   378      118.0000      285.6567   302483  142.08%
    527    50      269.4029   359      118.0000      285.6567   305119  142.08%
    531    54      271.8014   384      118.0000      285.6567   307026  142.08%
    536    59      270.3058   366      118.0000      285.6567   309438  142.08%
    543    66      266.3717   355      118.0000      285.6567   312502  142.08%
    552    75      266.9399   348      118.0000      285.6567   314587  142.08%
    557    80      267.5550   386      118.0000      285.6567   315917  142.08%
    566    89      250.7672   288      118.0000      285.6567   318682  142.08%
    585   104      250.4820   294      118.0000      285.6567   321920  142.08%
Elapsed time = 74.25 sec. (100342.93 ticks, tree = 1.51 MB, solutions = 9)
    603   122      244.5240   297      118.0000      285.6567   325592  142.08%
    610   129      248.4914   310      118.0000      285.6567   329415  142.08%
    620   135        cutoff            118.0000      285.6567   333207  142.08%
    623   136      271.3890   409      118.0000      285.5912   336559  142.03%
    626   139      252.3162   374      118.0000      285.5912   339668  142.03%
    632   145      252.2762   368      118.0000      285.5912   342247  142.03%
    639   152      257.0626   366      118.0000      285.5912   345490  142.03%
    651   164      258.7751   383      118.0000      285.5912   349440  142.03%
    661   173      255.2310   368      118.0000      285.5912   351673  142.03%
    677   189      251.9511   341      118.0000      285.5912   353515  142.03%
Elapsed time = 81.06 sec. (110657.75 ticks, tree = 3.67 MB, solutions = 9)
    701   213      247.4219   329      118.0000      285.5912   357206  142.03%
    712   217      279.1439   447      118.0000      285.5012   361256  141.95%
    716   221      277.9957   458      118.0000      285.5012   362056  141.95%
    737   242      272.2624   402      118.0000      285.5012   364918  141.95%
    764   269      242.2155   311      118.0000      285.5012   368502  141.95%
    781   283      279.0246   418      118.0000      285.4791   373114  141.93%
    803   305      260.1675   385      118.0000      285.4791   377578  141.93%
    838   338      248.5735   370      118.0000      285.4791   381144  141.93%
    856   351        cutoff            118.0000      285.4791   386033  141.93%
    857   352      282.3106   491      118.0000      285.4060   387592  141.87%
Elapsed time = 88.07 sec. (121375.69 ticks, tree = 6.41 MB, solutions = 9)
    873   368      277.3481   437      118.0000      285.4060   391248  141.87%
    890   381      278.8968   457      118.0000      285.3999   395884  141.86%
    906   396      260.0120   362      118.0000      285.3999   399213  141.86%
    916   406      258.8495   367      118.0000      285.3999   401355  141.86%
    937   427      255.3538   328      118.0000      285.3999   404869  141.86%
    959   447      252.1343   296      118.0000      285.3999   408675  141.86%
    980   466      240.8116   291      118.0000      285.3999   412718  141.86%
   1005   488      219.2228   243      118.0000      285.3999   416184  141.86%
   1036   510      276.1790   448      118.0000      285.3981   422376  141.86%
   1044   518      271.8897   389      118.0000      285.3981   424355  141.86%
Elapsed time = 95.50 sec. (132615.47 ticks, tree = 10.21 MB, solutions = 9)
   1057   531      266.3147   369      118.0000      285.3981   425906  141.86%
   1082   556      257.3445   358      118.0000      285.3981   429812  141.86%
   1093   563      271.8718   410      118.0000      285.3679   434572  141.84%
   1108   578      266.7347   374      118.0000      285.3679   437363  141.84%
   1132   602      249.5808   345      118.0000      285.3679   440961  141.84%
   1171   637      244.4321   322      118.0000      285.3679   444845  141.84%
   1184   646      281.5892   470      118.0000      285.3641   450369  141.83%
   1192   654      271.3782   394      118.0000      285.3641   452568  141.83%
   1204   666      264.8070   389      118.0000      285.3641   455325  141.83%
   1237   699      238.2569   285      118.0000      285.3641   458814  141.83%
Elapsed time = 103.38 sec. (143991.67 ticks, tree = 11.74 MB, solutions = 9)
   1287   741      278.6736   446      118.0000      285.0690   463916  141.58%
   1301   755      260.6873   394      118.0000      285.0690   467393  141.58%
   1323   777      245.7160   316      118.0000      285.0690   471193  141.58%
   1354   803        cutoff            118.0000      285.0690   475244  141.58%
   1362   807      272.0617   439      118.0000      285.0599   478942  141.58%
   1369   814      261.9426   409      118.0000      285.0599   483084  141.58%
   1387   832      254.1938   356      118.0000      285.0599   487164  141.58%
   1402   847      250.7833   357      118.0000      285.0599   490762  141.58%
   1420   865      245.0682   318      118.0000      285.0599   494661  141.58%
   1490   933      242.3101   320      118.0000      285.0599   509865  141.58%
Elapsed time = 112.45 sec. (157136.70 ticks, tree = 15.30 MB, solutions = 9)
   1576  1009    infeasible            118.0000      285.0599   526628  141.58%
   1668  1071      243.9807   343      118.0000      285.0515   538174  141.57%
   1739  1138      264.9956   398      118.0000      285.0424   549329  141.56%
   1857  1250      284.6794   490      118.0000      284.6793   560381  141.25%
   1909  1298      254.3417   385      118.0000      284.5359   574177  141.13%
   1993  1376      252.0782   351      118.0000      284.4126   587603  141.03%
   2121  1499      162.2232    95      118.0000      284.4126   598773  141.03%
   2221  1579      247.8798   336      118.0000      284.4046   611149  141.02%
   2332  1687      241.7427   295      118.0000      284.1853   624682  140.83%
Starting limited solution polishing.
   2441  1792      224.8827   268      118.0000      284.1827   639984  140.83%
Elapsed time = 139.03 sec. (195787.66 ticks, tree = 37.39 MB, solutions = 9)
*  2476+ 1824                          124.0000      284.1827           129.18%
   2576  1920      248.4131   335      124.0000      284.1234   653123  129.13%
   2614  1954      273.9084   410      124.0000      284.1131   665730  129.12%
   2666  1994      247.5625   341      124.0000      283.9692   682117  129.01%
Advanced basis not built.

GUB cover cuts applied:  58
Clique cuts applied:  125
Cover cuts applied:  18
Implied bound cuts applied:  105
Flow cuts applied:  25
Mixed integer rounding cuts applied:  198
Zero-half cuts applied:  181
Lift and project cuts applied:  31
Gomory fractional cuts applied:  7

Root node processing (before b&c):
  Real time             =    5.53 sec. (7410.19 ticks)
Sequential b&c:
  Real time             =  144.48 sec. (203484.50 ticks)
                          ------------
Total (root+branch&cut) =  150.00 sec. (210894.69 ticks)

Solution pool: 11 solutions saved.

MIP - Time limit exceeded, integer feasible:  Objective =  1.2400000000e+02
Current MIP best bound =  2.8396921038e+02 (gap = 159.969, 129.01%)
Solution time =  150.00 sec.  Iterations = 683333  Nodes = 2676 (2003)
Deterministic time = 210894.71 ticks  (1405.93 ticks/sec)


Incumbent solution
Variable Name           Solution Value
F                           124.000000
y6                            1.000000
y22                           1.000000
y55                           1.000000
y66                           1.000000
y103                          1.000000
y110                          1.000000
y113                          1.000000
y115                          1.000000
y130                          1.000000
y143                          1.000000
y158                          1.000000
y161                          1.000000
y189                          1.000000
y198                          1.000000
y213                          1.000000
y214                          1.000000
y223                          1.000000
y252                          1.000000
y254                          1.000000
y260                          1.000000
y273                          1.000000
x57x110x1                     1.000000
x110x213x1                    1.000000
x160x55x1                     1.000000
x177x130x1                    1.000000
x183x115x1                    1.000000
x228x113x1                    1.000000
x174x260x2                    2.000000
x183x6x2                      1.000000
x228x130x2                    1.000000
x279x113x2                    1.000000
x279x115x2                    1.000000
x57x110x3                     1.000000
x62x66x3                      1.000000
x110x273x3                    1.000000
x142x252x3                    2.000000
x160x198x3                    1.000000
x164x189x3                    2.000000
x177x55x3                     1.000000
x113x6x2                      1.000000
x6x0x2                        2.000000
x55x22x1                      1.000000
x115x22x1                     1.000000
x22x0x1                       2.000000
x55x214x3                     1.000000
x260x66x2                     1.000000
x66x223x2                     1.000000
x66x223x3                     1.000000
x115x103x2                    1.000000
x198x103x2                    1.000000
x103x0x2                      2.000000
x113x161x1                    1.000000
x130x143x1                    1.000000
x130x214x2                    1.000000
x143x0x1                      1.000000
x198x143x3                    1.000000
x143x0x3                      1.000000
x189x158x3                    2.000000
x158x0x3                      2.000000
x213x161x1                    1.000000
x161x0x1                      2.000000
x260x198x2                    1.000000
x213x0x1                      1.000000
x214x0x2                      1.000000
x214x0x3                      1.000000
x223x0x2                      1.000000
x223x0x3                      1.000000
x252x254x3                    2.000000
x254x0x3                      2.000000
x273x0x3                      2.000000
s13                           6.000000
s2                            6.610000
s5                            7.500000
s7                            8.220000
s11                           6.310000
s22                           8.702014
s24                           8.920000
s29                           8.310000
s30                           7.620000
s41                           8.630000
s48                           9.240000
s53                           6.420000
s55                           7.450000
s56                           8.790000
s76                           7.230000
s80                           8.440000
s87                           8.830000
s96                           8.415093
s113                          7.284712
s115                          7.039244
s125                          7.640000
s126                          6.520000
s128                          9.360000
s130                          7.569490
s135                          9.250000
s143                          8.981235
s161                          9.430000
z13z161z1                     1.000000
s176                          9.350000
s180                          6.740000
s193                          6.630000
s205                          8.250000
s213                          8.196122
s241                          7.720000
s251                          7.610000
s257                          7.300000
s258                          9.440000
s267                          7.490000
s269                          8.730000
s272                          8.750000
s284                          7.280000
s57                           5.184907
z57z5z1                       1.000000
s9                            6.000000
s16                           8.200000
z57z22z1                      1.000000
z57z24z1                      1.000000
z57z29z1                      1.000000
z57z30z1                      1.000000
s37                           7.260000
s52                           6.670000
z57z56z1                      1.000000
s64                           8.780000
s66                           8.020000
s72                           6.000000
z57z76z1                      1.000000
s82                           8.580000
z57z82z3                      1.000000
s92                           8.980000
s93                           6.550000
z57z96z1                      1.000000
s110                          6.582752
z57z110z1                     1.000000
z57z110z3                     1.000000
z57z125z1                     1.000000
s127                          8.990000
z57z127z3                     1.000000
z57z128z1                     1.000000
s132                          7.240000
s137                          9.170000
s148                          6.000000
s158                          8.490000
z57z158z3                     1.000000
s159                          7.790000
z57z161z1                     1.000000
s168                          9.380000
s169                          6.000000
s181                          6.000000
s187                          7.720000
z57z187z3                     1.000000
s188                          6.570000
s189                          7.370848
z57z189z3                     1.000000
s198                          7.854743
s199                          7.650000
z57z199z3                     1.000000
s201                          7.440000
s209                          7.310000
z57z209z3                     1.000000
z57z213z1                     1.000000
s214                          8.820000
s217                          6.000000
s223                          9.240000
s231                          7.930000
z57z241z1                     1.000000
s252                          7.600000
z57z252z3                     1.000000
s254                          8.678032
z57z254z3                     1.000000
s263                          9.120000
s265                          9.370000
z57z265z3                     1.000000
s273                          7.931591
z57z273z3                     1.000000
s278                          6.000000
s281                          6.000000
s62                           4.450000
z62z66z3                      1.000000
z62z82z3                      1.000000
z62z93z3                      1.000000
z62z127z3                     1.000000
z62z158z3                     1.000000
z62z169z3                     1.000000
z62z187z3                     1.000000
z62z189z3                     1.000000
z62z199z3                     1.000000
z62z209z3                     1.000000
z62z252z3                     1.000000
z62z254z3                     1.000000
z62z265z3                     1.000000
z62z273z3                     1.000000
s6                            8.625756
s8                            8.140000
s20                           7.760000
s103                          8.959094
z72z161z1                     1.000000
s166                          6.660000
s178                          7.810000
s260                          6.460000
z110z161z1                    1.000000
z110z213z1                    1.000000
z110z265z3                    1.000000
z110z273z3                    1.000000
s142                          5.897216
z142z82z3                     1.000000
z142z127z3                    1.000000
z142z158z3                    1.000000
z142z187z3                    1.000000
z142z189z3                    1.000000
z142z199z3                    1.000000
z142z252z3                    1.000000
z142z254z3                    1.000000
z142z265z3                    1.000000
z142z273z3                    1.000000
s160                          5.912963
z160z5z1                      1.000000
z160z22z1                     1.000000
z160z24z1                     1.000000
z160z29z1                     1.000000
z160z30z1                     1.000000
z160z55z1                     1.000000
z160z56z1                     1.000000
z160z82z3                     1.000000
z160z96z1                     1.000000
z160z125z1                    1.000000
z160z127z3                    1.000000
z160z128z1                    1.000000
z160z158z3                    1.000000
z160z161z1                    1.000000
z160z187z3                    1.000000
z160z198z3                    1.000000
z160z199z3                    1.000000
z160z213z1                    1.000000
z160z241z1                    1.000000
z160z252z3                    1.000000
z160z254z3                    1.000000
z160z265z3                    1.000000
z160z273z3                    1.000000
s164                          5.879479
z164z82z3                     1.000000
z164z127z3                    1.000000
z164z158z3                    1.000000
z164z187z3                    1.000000
z164z189z3                    1.000000
z164z199z3                    1.000000
z164z252z3                    1.000000
z164z254z3                    1.000000
z164z265z3                    1.000000
s174                          4.844859
z174z6z2                      1.000000
z174z8z2                      1.000000
z174z20z2                     1.000000
z174z103z2                    1.000000
z174z166z2                    1.000000
z174z178z2                    1.000000
s220                          6.000000
z174z260z2                    1.000000
s177                          5.624683
z177z5z1                      1.000000
z177z22z1                     1.000000
z177z24z1                     1.000000
z177z29z1                     1.000000
z177z30z1                     1.000000
z177z55z3                     1.000000
z177z56z1                     1.000000
z177z76z1                     1.000000
z177z82z3                     1.000000
z177z96z1                     1.000000
z177z125z1                    1.000000
z177z127z3                    1.000000
z177z128z1                    1.000000
z177z130z1                    1.000000
z177z158z3                    1.000000
z177z161z1                    1.000000
z177z187z3                    1.000000
z177z189z3                    1.000000
z177z199z3                    1.000000
z177z209z3                    1.000000
z177z213z1                    1.000000
z177z241z1                    1.000000
z177z252z3                    1.000000
z177z254z3                    1.000000
z177z265z3                    1.000000
z177z273z3                    1.000000
s183                          5.668833
z183z5z1                      1.000000
z183z6z2                      1.000000
z183z8z2                      1.000000
z183z22z1                     1.000000
z183z24z1                     1.000000
z183z29z1                     1.000000
z183z30z1                     1.000000
z183z56z1                     1.000000
z183z76z1                     1.000000
z183z96z1                     1.000000
z183z103z2                    1.000000
z183z115z1                    1.000000
z183z125z1                    1.000000
z183z128z1                    1.000000
z183z161z1                    1.000000
z183z178z2                    1.000000
z183z213z1                    1.000000
z183z241z1                    1.000000
s228                          5.946021
z228z6z2                      1.000000
z228z8z2                      1.000000
z228z22z1                     1.000000
z228z24z1                     1.000000
z228z29z1                     1.000000
z228z30z1                     1.000000
z228z56z1                     1.000000
z228z96z1                     1.000000
z228z103z2                    1.000000
z228z113z1                    1.000000
z228z125z1                    1.000000
z228z128z1                    1.000000
z228z130z2                    1.000000
z228z161z1                    1.000000
z228z178z2                    1.000000
z228z213z1                    1.000000
z228z241z1                    1.000000
s279                          5.187058
z279z6z2                      1.000000
z279z8z2                      1.000000
z279z103z2                    1.000000
z279z113z2                    1.000000
z279z115z2                    1.000000
z279z178z2                    1.000000
z2z161z1                      1.000000
z9z161z1                      1.000000
z11z161z1                     1.000000
z11z265z3                     1.000000
z52z265z3                     1.000000
z53z161z1                     1.000000
z55z22z1                      1.000000
z55z214z3                     1.000000
z66z223z2                     1.000000
z66z223z3                     1.000000
z93z265z3                     1.000000
z96z161z1                     1.000000
z113z6z2                      1.000000
z113z161z1                    1.000000
z115z22z1                     1.000000
z115z103z2                    1.000000
z115z161z1                    1.000000
z126z161z1                    1.000000
z126z265z3                    1.000000
z130z143z1                    1.000000
z130z214z2                    1.000000
z148z161z1                    1.000000
z159z265z3                    1.000000
z169z82z3                     1.000000
z169z265z3                    1.000000
z169z273z3                    1.000000
z180z161z1                    1.000000
z180z265z3                    1.000000
z181z161z1                    1.000000
z181z265z3                    1.000000
z188z265z3                    1.000000
z189z158z3                    1.000000
z193z161z1                    1.000000
z193z265z3                    1.000000
z198z103z2                    1.000000
z198z143z3                    1.000000
z213z161z1                    1.000000
z217z161z1                    1.000000
z252z254z3                    1.000000
z260z66z2                     1.000000
z260z198z2                    1.000000
z278z161z1                    1.000000
z281z161z1                    1.000000
All other variables in the range 1-6543 are 0.
